c
c LOANDRA:	 an extension of Open-WBO to core-boosted linear search.
c Version:	 July 2019 2018 -- Release: 1.0
c Authors:	 Jeremias Berg, Emir Demirovic, Peter Stuckey
c We thank the developers of Open-WBO for their work
c
c Open-WBO:	 a Modular MaxSAT Solver -- based on Glucose4.1 (core version)
c Version:	 September 2018 -- Release: 2.1
c Authors:	 Ruben Martins, Vasco Manquinho, Ines Lynce
c Contributors:	 Miguel Neves, Saurabh Joshi, Norbert Manthey, Mikolas Janota
c Contact:	 open-wbo@sat.inesc-id.pt -- http://sat.inesc-id.pt/open-wbo/
c
c WARNING: for repeatability, setting FPU to use double precision
c |                                                                                                       |
c ========================================[ Problem Statistics ]===========================================
c |                                                                                                       |
c |  Problem Format:             MaxSAT                                                                   |
c |  Problem Type:           Unweighted                                                                   |
c |  Number of variables:          1669                                                                   |
c |  Number of hard clauses:      14327                                                                   |
c |  Number of soft clauses:       1219                                                                   |
c |  Number of cardinality:           0                                                                   |
c |  Number of PB :                   0                                                                   |
c |  Parse time:                   0.01 s                                                                 |
c |                                                                                                       |
c PMRES ALGORITHM WITH LINEAR SEARCH 
c PMRES LINEAR STRAT=1
c PMRES LINEAR DIVISION=1
c PMRES CORE DIVISION=0
c PMRES CORE LIMIT (-1 = no limit)=30
c PMRES RELAX BEFORE STRAT =0
c PMRES INCREMENTAL LIN DIVISION =0
c PMRES MINIM =1
c PMRES MINIM STRAT =0
c PRE hard clauses before: 15546
c PRE soft literals before: 1219
c PRE time: 0 removed weight: 573
c PRE hard clauses after: 14139
c PRE soft literals after: 646
c Checking model
c CG best 781 LB: 573 at 0
o 781
c CG GAP: 208 T 0
c CG New weight: 1 at 0
c PMRES CORE LIMIT (-1 = no limit)=30
c Core budget remaining 30
c CG GAP: 207 T 0
c LB : 574          CS : 1            W  : 1           
c Core budget remaining 30
c CG GAP: 206 T 0
c LB : 575          CS : 1            W  : 1           
c Core budget remaining 30
c CG GAP: 205 T 0
c LB : 576          CS : 1            W  : 1           
c Core budget remaining 30
c CG GAP: 204 T 0
c LB : 577          CS : 1            W  : 1           
c Core budget remaining 30
c CG GAP: 203 T 0
c LB : 578          CS : 1            W  : 1           
c Core budget remaining 30
c CG GAP: 202 T 0
c LB : 579          CS : 1            W  : 1           
c Core budget remaining 30
c CG GAP: 201 T 0
c LB : 580          CS : 1            W  : 1           
c Core budget remaining 30
c CG GAP: 200 T 0
c LB : 581          CS : 1            W  : 1           
c Core budget remaining 30
c CG GAP: 199 T 0
c LB : 582          CS : 1            W  : 1           
c Core budget remaining 30
c CG GAP: 198 T 0
c LB : 583          CS : 1            W  : 1           
c Core budget remaining 30
c CG GAP: 197 T 0
c LB : 584          CS : 1            W  : 1           
c Core budget remaining 30
c CG GAP: 196 T 0
c LB : 585          CS : 1            W  : 1           
c Core budget remaining 30
c CG GAP: 195 T 0
c LB : 586          CS : 1            W  : 1           
c Core budget remaining 30
c CG GAP: 194 T 0
c LB : 587          CS : 1            W  : 1           
c Core budget remaining 30
c CG GAP: 193 T 0
c LB : 588          CS : 1            W  : 1           
c Core budget remaining 30
c CG GAP: 192 T 0
c LB : 589          CS : 1            W  : 1           
c Core budget remaining 30
c CG GAP: 191 T 0
c LB : 590          CS : 1            W  : 1           
c Core budget remaining 30
c CG GAP: 190 T 0
c LB : 591          CS : 1            W  : 1           
c Core budget remaining 30
c CG GAP: 189 T 0
c LB : 592          CS : 1            W  : 1           
c Core budget remaining 30
c CG GAP: 188 T 0
c LB : 593          CS : 1            W  : 1           
c Core budget remaining 30
c CG GAP: 187 T 0
c LB : 594          CS : 1            W  : 1           
c Core budget remaining 30
c CG GAP: 186 T 0
c LB : 595          CS : 1            W  : 1           
c Core budget remaining 30
c CG GAP: 185 T 0
c LB : 596          CS : 1            W  : 1           
c Core budget remaining 30
c CG GAP: 184 T 0
c LB : 597          CS : 1            W  : 1           
c Core budget remaining 30
c CG GAP: 183 T 0
c LB : 598          CS : 1            W  : 1           
c Core budget remaining 30
c CG GAP: 182 T 0
c LB : 599          CS : 1            W  : 1           
c Core budget remaining 30
c CG GAP: 181 T 0
c LB : 600          CS : 1            W  : 1           
c Core budget remaining 30
c CG GAP: 180 T 0
c LB : 601          CS : 1            W  : 1           
c Core budget remaining 30
c CG GAP: 179 T 0
c LB : 602          CS : 1            W  : 1           
c Core budget remaining 30
c CG GAP: 178 T 0
c LB : 603          CS : 1            W  : 1           
c Core budget remaining 30
c CG GAP: 177 T 0
c LB : 604          CS : 1            W  : 1           
c Core budget remaining 30
c CG GAP: 176 T 0
c LB : 605          CS : 1            W  : 1           
c Core budget remaining 30
c CG GAP: 175 T 0
c LB : 606          CS : 1            W  : 1           
c Core budget remaining 30
c CG GAP: 174 T 0
c LB : 607          CS : 1            W  : 1           
c Core budget remaining 30
c CG GAP: 173 T 0
c LB : 608          CS : 1            W  : 1           
c Core budget remaining 30
c CG GAP: 172 T 0
c LB : 609          CS : 1            W  : 1           
c Core budget remaining 30
c CG GAP: 171 T 0
c LB : 610          CS : 1            W  : 1           
c Core budget remaining 30
c CG GAP: 170 T 0
c LB : 611          CS : 1            W  : 1           
c Core budget remaining 30
c CG GAP: 169 T 0
c LB : 612          CS : 1            W  : 1           
c Core budget remaining 30
c CG GAP: 168 T 0
c LB : 613          CS : 1            W  : 1           
c Core budget remaining 30
c CG GAP: 167 T 0
c LB : 614          CS : 1            W  : 1           
c Core budget remaining 30
c CG GAP: 166 T 0
c LB : 615          CS : 1            W  : 1           
c Core budget remaining 30
c CG GAP: 165 T 0
c LB : 616          CS : 1            W  : 1           
c Core budget remaining 30
c CG GAP: 164 T 0
c LB : 617          CS : 1            W  : 1           
c Core budget remaining 30
c CG GAP: 163 T 0
c LB : 618          CS : 1            W  : 1           
c Core budget remaining 30
c CG GAP: 162 T 0
c LB : 619          CS : 1            W  : 1           
c Core budget remaining 30
c CG GAP: 161 T 0
c LB : 620          CS : 1            W  : 1           
c Core budget remaining 30
c CG GAP: 160 T 0
c LB : 621          CS : 1            W  : 1           
c Core budget remaining 30
c CG GAP: 159 T 0
c LB : 622          CS : 1            W  : 1           
c Core budget remaining 30
c CG GAP: 158 T 0
c LB : 623          CS : 1            W  : 1           
c Core budget remaining 30
c CG GAP: 157 T 0
c LB : 624          CS : 1            W  : 1           
c Core budget remaining 30
c CG GAP: 156 T 0
c LB : 625          CS : 1            W  : 1           
c Core budget remaining 30
c CG GAP: 155 T 0
c LB : 626          CS : 1            W  : 1           
c Core budget remaining 30
c CG GAP: 154 T 0
c LB : 627          CS : 1            W  : 1           
c Core budget remaining 30
c CG GAP: 153 T 0
c LB : 628          CS : 1            W  : 1           
c Core budget remaining 30
c CG GAP: 152 T 0
c LB : 629          CS : 1            W  : 1           
c Core budget remaining 30
c CG GAP: 151 T 0
c LB : 630          CS : 1            W  : 1           
c Core budget remaining 30
c CG GAP: 150 T 0
c LB : 631          CS : 1            W  : 1           
c Core budget remaining 30
c CG GAP: 149 T 0
c LB : 632          CS : 1            W  : 1           
c Core budget remaining 30
c CG GAP: 148 T 0
c LB : 633          CS : 1            W  : 1           
c Core budget remaining 30
c CG GAP: 147 T 0
c LB : 634          CS : 1            W  : 1           
c Core budget remaining 30
c CG GAP: 146 T 0
c LB : 635          CS : 1            W  : 1           
c Core budget remaining 30
c CG GAP: 145 T 0
c LB : 636          CS : 1            W  : 1           
c Core budget remaining 30
c CG GAP: 144 T 0
c LB : 637          CS : 1            W  : 1           
c Core budget remaining 30
c CG GAP: 143 T 0
c LB : 638          CS : 1            W  : 1           
c Core budget remaining 30
c CG GAP: 142 T 0
c LB : 639          CS : 1            W  : 1           
c Core budget remaining 30
c CG GAP: 141 T 0
c LB : 640          CS : 1            W  : 1           
c Core budget remaining 30
c CG GAP: 140 T 0
c LB : 641          CS : 1            W  : 1           
c Core budget remaining 30
c CG GAP: 139 T 0
c LB : 642          CS : 1            W  : 1           
c Core budget remaining 30
c CG GAP: 138 T 0
c LB : 643          CS : 1            W  : 1           
c Core budget remaining 30
c CG GAP: 137 T 0
c LB : 644          CS : 1            W  : 1           
c Core budget remaining 30
c CG GAP: 136 T 0
c LB : 645          CS : 1            W  : 1           
c Core budget remaining 30
c CG GAP: 135 T 0
c LB : 646          CS : 1            W  : 1           
c Core budget remaining 30
c CG GAP: 134 T 0
c LB : 647          CS : 1            W  : 1           
c Core budget remaining 30
c CG GAP: 133 T 0
c LB : 648          CS : 1            W  : 1           
c Core budget remaining 30
c CG GAP: 132 T 0
c LB : 649          CS : 1            W  : 1           
c Core budget remaining 30
c CG GAP: 131 T 0
c LB : 650          CS : 1            W  : 1           
c Core budget remaining 30
c CG GAP: 130 T 0
c LB : 651          CS : 1            W  : 1           
c Core budget remaining 30
c CG GAP: 129 T 0
c LB : 652          CS : 1            W  : 1           
c Core budget remaining 30
c CG GAP: 128 T 0
c LB : 653          CS : 1            W  : 1           
c Core budget remaining 30
c CG GAP: 127 T 0
c LB : 654          CS : 1            W  : 1           
c Core budget remaining 30
c CG GAP: 126 T 0
c LB : 655          CS : 1            W  : 1           
c Core budget remaining 30
c CG GAP: 125 T 0
c LB : 656          CS : 1            W  : 1           
c Core budget remaining 30
c CG GAP: 124 T 0
c LB : 657          CS : 1            W  : 1           
c Core budget remaining 30
c CG GAP: 123 T 0
c LB : 658          CS : 1            W  : 1           
c Core budget remaining 30
c CG GAP: 122 T 0
c LB : 659          CS : 1            W  : 1           
c Core budget remaining 30
c CG GAP: 121 T 0
c LB : 660          CS : 1            W  : 1           
c Core budget remaining 30
c CG GAP: 120 T 0
c LB : 661          CS : 1            W  : 1           
c Core budget remaining 30
c CG GAP: 119 T 0
c LB : 662          CS : 1            W  : 1           
c Core budget remaining 30
c CG GAP: 118 T 0
c LB : 663          CS : 1            W  : 1           
c Core budget remaining 30
c CG GAP: 117 T 0
c LB : 664          CS : 1            W  : 1           
c Core budget remaining 30
c CG GAP: 116 T 0
c LB : 665          CS : 1            W  : 1           
c Core budget remaining 30
c CG GAP: 115 T 0
c LB : 666          CS : 1            W  : 1           
c Core budget remaining 30
c CG GAP: 114 T 0
c LB : 667          CS : 1            W  : 1           
c Core budget remaining 30
c CG GAP: 113 T 0
c LB : 668          CS : 1            W  : 1           
c Core budget remaining 30
c CG GAP: 112 T 0
c LB : 669          CS : 1            W  : 1           
c Core budget remaining 30
c CG GAP: 111 T 0
c LB : 670          CS : 4            W  : 1           
c Core budget remaining 30
c CG GAP: 110 T 0
c LB : 671          CS : 4            W  : 1           
c Core budget remaining 30
c CG GAP: 109 T 0
c LB : 672          CS : 4            W  : 1           
c Core budget remaining 30
c CG GAP: 108 T 0
c LB : 673          CS : 4            W  : 1           
c Core budget remaining 30
c CG GAP: 107 T 0
c LB : 674          CS : 4            W  : 1           
c Core budget remaining 30
c CG GAP: 106 T 0
c LB : 675          CS : 4            W  : 1           
c Core budget remaining 30
c CG GAP: 105 T 0
c LB : 676          CS : 4            W  : 1           
c Core budget remaining 30
c CG GAP: 104 T 0
c LB : 677          CS : 4            W  : 1           
c Core budget remaining 30
c CG GAP: 103 T 0
c LB : 678          CS : 4            W  : 1           
c Core budget remaining 30
c CG GAP: 102 T 0
c LB : 679          CS : 4            W  : 1           
c Core budget remaining 30
c CG GAP: 101 T 0
c LB : 680          CS : 4            W  : 1           
c Core budget remaining 30
c CG GAP: 100 T 0
c LB : 681          CS : 4            W  : 1           
c Core budget remaining 30
c CG GAP: 99 T 0
c LB : 682          CS : 4            W  : 1           
c Core budget remaining 30
c CG GAP: 98 T 0
c LB : 683          CS : 4            W  : 1           
c Core budget remaining 30
c CG GAP: 97 T 0
c LB : 684          CS : 4            W  : 1           
c Core budget remaining 30
c CG GAP: 96 T 0
c LB : 685          CS : 4            W  : 1           
c Core budget remaining 30
c CG GAP: 95 T 0
c LB : 686          CS : 4            W  : 1           
c Core budget remaining 30
c CG GAP: 94 T 0
c LB : 687          CS : 4            W  : 1           
c Core budget remaining 30
c CG GAP: 93 T 0
c LB : 688          CS : 4            W  : 1           
c Core budget remaining 30
c CG GAP: 92 T 0
c LB : 689          CS : 4            W  : 1           
c Core budget remaining 30
c CG GAP: 91 T 0
c LB : 690          CS : 3            W  : 1           
c Core budget remaining 30
c CG GAP: 90 T 0
c LB : 691          CS : 3            W  : 1           
c Core budget remaining 30
c CG GAP: 89 T 0
c LB : 692          CS : 3            W  : 1           
c Core budget remaining 30
c CG GAP: 88 T 0
c LB : 693          CS : 3            W  : 1           
c Core budget remaining 30
c CG GAP: 87 T 0
c LB : 694          CS : 3            W  : 1           
c Core budget remaining 30
c CG GAP: 86 T 0
c LB : 695          CS : 3            W  : 1           
c Core budget remaining 30
c CG GAP: 85 T 0
c LB : 696          CS : 3            W  : 1           
c Core budget remaining 30
c CG GAP: 84 T 0
c LB : 697          CS : 3            W  : 1           
c Core budget remaining 30
c CG GAP: 83 T 0
c LB : 698          CS : 3            W  : 1           
c Core budget remaining 30
c CG GAP: 82 T 0
c LB : 699          CS : 3            W  : 1           
c Core budget remaining 30
c CG GAP: 81 T 0
c LB : 700          CS : 3            W  : 1           
c Core budget remaining 30
c CG GAP: 80 T 0
c LB : 701          CS : 3            W  : 1           
c Core budget remaining 30
c CG GAP: 79 T 0
c LB : 702          CS : 3            W  : 1           
c Core budget remaining 30
c CG GAP: 78 T 0
c LB : 703          CS : 3            W  : 1           
c Core budget remaining 30
c CG GAP: 77 T 0
c LB : 704          CS : 3            W  : 1           
c Core budget remaining 30
c CG GAP: 76 T 0
c LB : 705          CS : 3            W  : 1           
c Core budget remaining 30
c CG GAP: 75 T 0
c LB : 706          CS : 3            W  : 1           
c Core budget remaining 30
c CG GAP: 74 T 0
c LB : 707          CS : 3            W  : 1           
c Core budget remaining 30
c CG GAP: 73 T 0
c LB : 708          CS : 3            W  : 1           
c Core budget remaining 30
c CG GAP: 72 T 0
c LB : 709          CS : 3            W  : 1           
c Core budget remaining 30
c CG GAP: 71 T 0
c LB : 710          CS : 3            W  : 1           
c Core budget remaining 30
c CG GAP: 70 T 0
c LB : 711          CS : 3            W  : 1           
c Core budget remaining 30
c CG GAP: 69 T 0
c LB : 712          CS : 3            W  : 1           
c Core budget remaining 30
c CG GAP: 68 T 0
c LB : 713          CS : 3            W  : 1           
c Core budget remaining 30
c CG GAP: 67 T 0
c LB : 714          CS : 3            W  : 1           
c Core budget remaining 30
c CG GAP: 66 T 0
c LB : 715          CS : 3            W  : 1           
c Core budget remaining 30
c CG GAP: 65 T 0
c LB : 716          CS : 3            W  : 1           
c Core budget remaining 30
c CG GAP: 64 T 0
c LB : 717          CS : 3            W  : 1           
c Core budget remaining 30
c CG GAP: 63 T 0
c LB : 718          CS : 3            W  : 1           
c Core budget remaining 30
c CG GAP: 62 T 0
c LB : 719          CS : 3            W  : 1           
c Core budget remaining 30
c CG GAP: 61 T 0
c LB : 720          CS : 3            W  : 1           
c Core budget remaining 30
c CG GAP: 60 T 0
c LB : 721          CS : 3            W  : 1           
c Core budget remaining 30
c CG GAP: 59 T 0
c LB : 722          CS : 4            W  : 1           
c Core budget remaining 30
c CG GAP: 58 T 0
c LB : 723          CS : 4            W  : 1           
c Core budget remaining 30
c CG GAP: 57 T 0
c LB : 724          CS : 4            W  : 1           
c Core budget remaining 30
c CG GAP: 56 T 0
c LB : 725          CS : 4            W  : 1           
c Core budget remaining 30
c CG GAP: 55 T 0
c LB : 726          CS : 4            W  : 1           
c Core budget remaining 30
c CG GAP: 54 T 0
c LB : 727          CS : 4            W  : 1           
c Core budget remaining 30
c CG GAP: 53 T 0
c LB : 728          CS : 4            W  : 1           
c Core budget remaining 30
c CG GAP: 52 T 0
c LB : 729          CS : 5            W  : 1           
c Core budget remaining 30
c CG GAP: 51 T 0
c LB : 730          CS : 3            W  : 1           
c Core budget remaining 30
c CG GAP: 50 T 0
c LB : 731          CS : 2            W  : 1           
c Core budget remaining 30
c CG GAP: 49 T 0
c LB : 732          CS : 3            W  : 1           
c Core budget remaining 30
c CG GAP: 48 T 0
c LB : 733          CS : 2            W  : 1           
c Core budget remaining 30
c CG GAP: 47 T 0
c LB : 734          CS : 2            W  : 1           
c Core budget remaining 30
c CG GAP: 46 T 0
c LB : 735          CS : 2            W  : 1           
c Core budget remaining 30
c CG GAP: 45 T 0
c LB : 736          CS : 2            W  : 1           
c Core budget remaining 30
c CG GAP: 44 T 0
c LB : 737          CS : 5            W  : 1           
c Core budget remaining 30
c CG GAP: 43 T 0
c LB : 738          CS : 5            W  : 1           
c Core budget remaining 30
c CG GAP: 42 T 0
c LB : 739          CS : 4            W  : 1           
c Core budget remaining 30
c CG GAP: 41 T 0
c LB : 740          CS : 4            W  : 1           
c Core budget remaining 30
c CG GAP: 40 T 0
c LB : 741          CS : 3            W  : 1           
c Core budget remaining 30
c CG GAP: 39 T 0
c LB : 742          CS : 3            W  : 1           
c Core budget remaining 30
c CG GAP: 38 T 0
c LB : 743          CS : 3            W  : 1           
c Core budget remaining 30
c CG GAP: 37 T 0
c LB : 744          CS : 6            W  : 1           
c Core budget remaining 30
c CG GAP: 36 T 0
c LB : 745          CS : 6            W  : 1           
c Core budget remaining 30
c CG GAP: 35 T 0
c LB : 746          CS : 6            W  : 1           
c Core budget remaining 30
c CG GAP: 34 T 0
c LB : 747          CS : 6            W  : 1           
c Core budget remaining 30
c CG GAP: 33 T 0
c LB : 748          CS : 6            W  : 1           
c Core budget remaining 30
c CG GAP: 32 T 0
c LB : 749          CS : 6            W  : 1           
c Core budget remaining 30
c CG GAP: 31 T 0
c LB : 750          CS : 6            W  : 1           
c Core budget remaining 30
c CG GAP: 30 T 0
c LB : 751          CS : 5            W  : 1           
c Core budget remaining 30
c CG GAP: 29 T 0
c LB : 752          CS : 4            W  : 1           
c Core budget remaining 30
c CG GAP: 28 T 0
c LB : 753          CS : 5            W  : 1           
c Core budget remaining 30
c SAT-During core guided phase at 0
c Checking model
c CG best 778 LB: 753 at 0
o 778
c CG GAP: 25 T 0
c Hardening with gap: 25
c Hardened in total: 0 clauses
c Hardening again at gap 1
c Strat 2 Relax
c Updating solver at 0
c Starting lin search with: LB: 753 UB: 778 UB - LB: 25 Time 0
c Deleting solver
c CG New factor 1
c Extending best model to full formula
c Checking model
c Reduced cost 25 gap 25
c Building new PB
c Considering 466 of 466 soft clauses
c Minimizing in init
c Minimization time 0 init minsize 25 skipped 0
c Reduced cost 7 gap 25
c DIF before minim: 25 after 7
c Encoding PB with UB: 7 obj size 466
c Encoding Done
c Setting Card Vars currently: 4618 / orig 2314
c Checking model
c LIN best 760 LB: 753 at 0
o 760
c LIN GAP: 7 T 0
c CardVars DONE  
c SAT Call at 0
c Reduced cost 7 gap 7
c Checking model
c BOUND UPDATE RHS: 6 at 0
c SAT Call at 0
c Reduced cost 6 gap 7
c Checking model
c LIN best 759 LB: 753 at 0
o 759
c LIN GAP: 6 T 0
c BOUND UPDATE RHS: 5 at 0
c SAT Call at 0
c Reduced cost 5 gap 6
c Checking model
c LIN best 758 LB: 753 at 0
o 758
c LIN GAP: 5 T 0
c BOUND UPDATE RHS: 4 at 0
c SAT Call at 0
c Reduced cost 4 gap 5
c Checking model
c LIN best 757 LB: 753 at 0
o 757
c LIN GAP: 4 T 0
c BOUND UPDATE RHS: 3 at 0
c SAT Call at 0
c Reduced cost 3 gap 4
c Checking model
c LIN best 756 LB: 753 at 0
o 756
c LIN GAP: 3 T 0
c BOUND UPDATE RHS: 2 at 0
c SAT Call at 0
c Reduced cost 2 gap 3
c Checking model
c LIN best 755 LB: 753 at 0
o 755
c LIN GAP: 2 T 0
c BOUND UPDATE RHS: 1 at 0
c SAT Call at 0
c Reconstructing in print answer
c Reconstruction time: 0
c new cost: 755
s OPTIMUM FOUND
v 0010010010010010010010010010010010010010010010010010010010010010010010010010010010010010010010010010010010010010010010010010010010010010010010010010011011011111011011011011011011011011011011011011011011011011011011011011111011011111011011011011011011011011111011011011011011011011010011010011011011011111011111011011111011111011111011011111011011011011111111011111011111011011111011111011011111111011111011111111011111011111011011111111011011111011011111111111111111111111111111111111111111111111111111111111111111111111111111111111111111111111111111111111111111111111111111111111111111111111111111111111111111111111111111111111111111111111111111111111111111111111111111111111111111111111111111111111111111111111111111111111111111111111111111111111111111111111111111111111111111111111111111111111111111111111111111111111111111111111111111111111111111111111111111111111111111111111111111111111111111111111111111111111111111111111111111111111111111111111111111111111111111111111111111111111111111111111111111111111111111111111111111111111111111111111111111111111111111111111111111111111111111111111111111111111111111111111111111111111111111111111111111111111111111111111111111111111111111111111111111111111100000000000000000000000000000000000000000000000000000000000000000000000000000000000000000000000000000000000000000000000000000000000000000000000000000000000000000000000000000000000000000000000000000000000000000000000000000000000000000000000000000000000000000000000000000000000000000000000000000000000000000000000000000000000000000000000000000000000000000000000000000000000000000000000000000000000000000000000000000000000000000000000000000000000000000000000000000000
